p cnf 16 22
-1 14 0 
-1 15 0 
-2 14 0 
-3 7 12 -4 15 0 
-5 10 11 15 0 
-5 10 11 14 0 
-3 7 12 -4 14 0 
-6 16 0 
-7 3 12 -8 15 0 
-6 14 0 
-9 13 14 0 
-10 5 11 14 0 
-11 5 10 14 0 
-2 15 0 
-12 3 7 14 0 
-13 9 14 0 
-5 10 11 15 0 
-12 3 7 15 0 
-9 13 15 0 
-13 9 15 0 
-2 15 0 
-6 15 0 
